36
120
81	1
80	1
78	1
77	1
76	1
75	1
74	1
70	1
69	1
68	1
67	2
65	1
64	1
62	1
61	1
60	1
59	4
58	1
57	1
53	2
52	2
51	1
48	2
45	2
44	2
43	2
42	3
41	1
40	1
38	1
37	1
36	2
35	1
30	1
27	1
24	2
